<?xml version = "1.0" encoding="UTF-8" standalone="yes"?>
<CPLEXSolution version="1.2">
 <header
   problemName="IloCplex"
   solutionName="p0"
   solutionIndex="-1"
   objectiveValue="-4031078536"
   solutionTypeValue="3"
   solutionTypeString="primal"
   solutionStatusValue="127"
   solutionStatusString="integer feasible solution"
   solutionMethodString="mip"
   primalFeasible="0"
   dualFeasible="0"
   writeLevel="3"/>
 <quality
   epInt="1.0000000000000001e-05"
   epRHS="9.9999999999999995e-07"
   maxIntInfeas="0"
   maxPrimalInfeas="0"
   maxX="1"
   maxSlack="1"/>
 <variables>
  <variable name="w2_5" index="35" value="1"/>
  <variable name="w2_6" index="36" value="1"/>
  <variable name="w2_14" index="44" value="1"/>
  <variable name="w3_5" index="50" value="1"/>
  <variable name="w3_6" index="51" value="1"/>
  <variable name="w3_14" index="59" value="1"/>
  <variable name="w7_5" index="110" value="1"/>
  <variable name="w7_6" index="111" value="1"/>
  <variable name="w7_14" index="119" value="1"/>
  <variable name="w8_5" index="125" value="1"/>
  <variable name="w8_6" index="126" value="1"/>
  <variable name="w8_14" index="134" value="1"/>
  <variable name="w10_5" index="155" value="1"/>
  <variable name="w10_6" index="156" value="1"/>
  <variable name="w10_14" index="164" value="1"/>
  <variable name="w11_5" index="170" value="1"/>
  <variable name="w11_6" index="171" value="1"/>
  <variable name="w11_14" index="179" value="1"/>
  <variable name="w17_5" index="260" value="1"/>
  <variable name="w17_6" index="261" value="1"/>
  <variable name="w17_14" index="269" value="1"/>
  <variable name="w18_5" index="275" value="1"/>
  <variable name="w18_6" index="276" value="1"/>
  <variable name="w18_14" index="284" value="1"/>
  <variable name="k2" index="302" value="1"/>
  <variable name="k3" index="303" value="1"/>
  <variable name="k7" index="307" value="1"/>
  <variable name="k8" index="308" value="1"/>
  <variable name="k10" index="310" value="1"/>
  <variable name="k11" index="311" value="1"/>
  <variable name="k17" index="317" value="1"/>
  <variable name="k18" index="318" value="1"/>
  <variable name="x0_98" index="418" value="1"/>
  <variable name="x1_93" index="563" value="1"/>
  <variable name="x2_65" index="685" value="1"/>
  <variable name="x3_54" index="824" value="1"/>
  <variable name="x4_70" index="990" value="1"/>
  <variable name="x5_64" index="1134" value="1"/>
  <variable name="x6_66" index="1286" value="1"/>
  <variable name="x7_35" index="1405" value="1"/>
  <variable name="x8_73" index="1593" value="1"/>
  <variable name="x9_69" index="1739" value="1"/>
  <variable name="x10_68" index="1888" value="1"/>
  <variable name="x11_59" index="2029" value="1"/>
  <variable name="x12_71" index="2191" value="1"/>
  <variable name="x13_67" index="2337" value="1"/>
  <variable name="x14_61" index="2481" value="1"/>
  <variable name="x15_72" index="2642" value="1"/>
  <variable name="x16_6" index="2726" value="1"/>
  <variable name="x17_74" index="2944" value="1"/>
  <variable name="x18_131" index="3151" value="1"/>
  <variable name="x19_136" index="3306" value="1"/>
  <variable name="x20_125" index="3445" value="1"/>
  <variable name="x21_129" index="3599" value="1"/>
  <variable name="x22_124" index="3744" value="1"/>
  <variable name="x23_135" index="3905" value="1"/>
  <variable name="x24_121" index="4041" value="1"/>
  <variable name="x25_137" index="4207" value="1"/>
  <variable name="x26_122" index="4342" value="1"/>
  <variable name="x27_120" index="4490" value="1"/>
  <variable name="x28_133" index="4653" value="1"/>
  <variable name="x29_132" index="4802" value="1"/>
  <variable name="x30_138" index="4958" value="1"/>
  <variable name="x31_148" index="5118" value="1"/>
  <variable name="x32_139" index="5259" value="1"/>
  <variable name="x33_149" index="5419" value="1"/>
  <variable name="x34_0" index="5420" value="1"/>
  <variable name="x35_37" index="5607" value="1"/>
  <variable name="x36_1" index="5721" value="1"/>
  <variable name="x37_143" index="6013" value="1"/>
  <variable name="x38_146" index="6166" value="1"/>
  <variable name="x39_147" index="6317" value="1"/>
  <variable name="x40_130" index="6450" value="1"/>
  <variable name="x41_145" index="6615" value="1"/>
  <variable name="x42_144" index="6764" value="1"/>
  <variable name="x43_43" index="6813" value="1"/>
  <variable name="x44_44" index="6964" value="1"/>
  <variable name="x45_141" index="7211" value="1"/>
  <variable name="x46_46" index="7266" value="1"/>
  <variable name="x47_47" index="7417" value="1"/>
  <variable name="x48_48" index="7568" value="1"/>
  <variable name="x49_49" index="7719" value="1"/>
  <variable name="x50_50" index="7870" value="1"/>
  <variable name="x51_51" index="8021" value="1"/>
  <variable name="x52_52" index="8172" value="1"/>
  <variable name="x53_53" index="8323" value="1"/>
  <variable name="x54_134" index="8554" value="1"/>
  <variable name="x55_55" index="8625" value="1"/>
  <variable name="x56_56" index="8776" value="1"/>
  <variable name="x57_57" index="8927" value="1"/>
  <variable name="x58_81" index="9101" value="1"/>
  <variable name="x59_15" index="9185" value="1"/>
  <variable name="x60_11" index="9331" value="1"/>
  <variable name="x61_14" index="9484" value="1"/>
  <variable name="x62_10" index="9630" value="1"/>
  <variable name="x63_5" index="9775" value="1"/>
  <variable name="x64_63" index="9983" value="1"/>
  <variable name="x65_16" index="10086" value="1"/>
  <variable name="x66_3" index="10223" value="1"/>
  <variable name="x67_13" index="10383" value="1"/>
  <variable name="x68_7" index="10527" value="1"/>
  <variable name="x69_9" index="10679" value="1"/>
  <variable name="x70_8" index="10828" value="1"/>
  <variable name="x71_2" index="10972" value="1"/>
  <variable name="x72_4" index="11124" value="1"/>
  <variable name="x73_62" index="11332" value="1"/>
  <variable name="x74_17" index="11437" value="1"/>
  <variable name="x75_114" index="11684" value="1"/>
  <variable name="x76_117" index="11837" value="1"/>
  <variable name="x77_119" index="11989" value="1"/>
  <variable name="x78_109" index="12129" value="1"/>
  <variable name="x79_83" index="12253" value="1"/>
  <variable name="x80_106" index="12426" value="1"/>
  <variable name="x81_60" index="12530" value="1"/>
  <variable name="x82_111" index="12731" value="1"/>
  <variable name="x83_105" index="12875" value="1"/>
  <variable name="x84_110" index="13030" value="1"/>
  <variable name="x85_108" index="13178" value="1"/>
  <variable name="x86_104" index="13324" value="1"/>
  <variable name="x87_113" index="13483" value="1"/>
  <variable name="x88_112" index="13632" value="1"/>
  <variable name="x89_118" index="13788" value="1"/>
  <variable name="x90_107" index="13927" value="1"/>
  <variable name="x91_116" index="14086" value="1"/>
  <variable name="x92_92" index="14212" value="1"/>
  <variable name="x93_142" index="14412" value="1"/>
  <variable name="x94_94" index="14514" value="1"/>
  <variable name="x95_126" index="14696" value="1"/>
  <variable name="x96_96" index="14816" value="1"/>
  <variable name="x97_128" index="14998" value="1"/>
  <variable name="x98_58" index="15078" value="1"/>
  <variable name="x99_99" index="15269" value="1"/>
  <variable name="x100_100" index="15420" value="1"/>
  <variable name="x101_101" index="15571" value="1"/>
  <variable name="x102_102" index="15722" value="1"/>
  <variable name="x103_103" index="15873" value="1"/>
  <variable name="x104_75" index="15995" value="1"/>
  <variable name="x105_88" index="16158" value="1"/>
  <variable name="x106_85" index="16305" value="1"/>
  <variable name="x107_84" index="16454" value="1"/>
  <variable name="x108_82" index="16602" value="1"/>
  <variable name="x109_90" index="16760" value="1"/>
  <variable name="x110_86" index="16906" value="1"/>
  <variable name="x111_79" index="17049" value="1"/>
  <variable name="x112_80" index="17200" value="1"/>
  <variable name="x113_77" index="17347" value="1"/>
  <variable name="x114_87" index="17507" value="1"/>
  <variable name="x115_89" index="17659" value="1"/>
  <variable name="x116_91" index="17811" value="1"/>
  <variable name="x117_78" index="17948" value="1"/>
  <variable name="x118_76" index="18096" value="1"/>
  <variable name="x119_115" index="18285" value="1"/>
  <variable name="x120_40" index="18360" value="1"/>
  <variable name="x121_23" index="18493" value="1"/>
  <variable name="x122_24" index="18644" value="1"/>
  <variable name="x123_45" index="18815" value="1"/>
  <variable name="x124_32" index="18952" value="1"/>
  <variable name="x125_19" index="19089" value="1"/>
  <variable name="x126_140" index="19360" value="1"/>
  <variable name="x127_36" index="19406" value="1"/>
  <variable name="x128_27" index="19547" value="1"/>
  <variable name="x129_26" index="19696" value="1"/>
  <variable name="x130_34" index="19854" value="1"/>
  <variable name="x131_28" index="19998" value="1"/>
  <variable name="x132_29" index="20149" value="1"/>
  <variable name="x133_39" index="20309" value="1"/>
  <variable name="x134_30" index="20450" value="1"/>
  <variable name="x135_22" index="20592" value="1"/>
  <variable name="x136_95" index="20815" value="1"/>
  <variable name="x137_31" index="20901" value="1"/>
  <variable name="x138_18" index="21038" value="1"/>
  <variable name="x139_21" index="21191" value="1"/>
  <variable name="x140_123" index="21443" value="1"/>
  <variable name="x141_127" index="21597" value="1"/>
  <variable name="x142_20" index="21640" value="1"/>
  <variable name="x143_97" index="21867" value="1"/>
  <variable name="x144_33" index="21953" value="1"/>
  <variable name="x145_38" index="22108" value="1"/>
  <variable name="x146_41" index="22261" value="1"/>
  <variable name="x147_42" index="22412" value="1"/>
  <variable name="x148_25" index="22545" value="1"/>
  <variable name="x149_12" index="22682" value="1"/>
  <variable name="u5" index="22825" value="1"/>
  <variable name="u6" index="22826" value="1"/>
  <variable name="u14" index="22834" value="1"/>
 </variables>
</CPLEXSolution>
